#B3LYP/TZVP OPT FREQ

Energy:     -0.00554412

0 1
    O      1.64143309      9.10666848      9.82201782
    H      2.36168012      9.38658324      9.24662313
    H      0.92445546      8.85614474      9.22925477


