%Nprocshared=-char
# wb97xd 6-31++g** opt
 
.test.com
 
0 1
 
