#B3LYP/TZVP OPT FREQ

Energy:   -732.60201619

0 1
    O      3.72437533      4.05885630      1.96531923
    H      3.39216916      4.21416032      1.04821999
    O      4.61042327      3.61270560      4.08211624
    H      4.33122072      3.72674219      3.14068258
    H      4.88908959      4.46795116      4.49224310
    H      3.91984544      3.15248696      4.61972323


