#B3LYP/TZVP OPT FREQ

Energy:     -8.22225908

0 1
    O      4.45875894      7.36367444      7.59386017
    H      5.11032663      7.44979693      8.29829581
    H      4.84696130      6.74920184      6.96147622
    O      6.72903878      5.31142418      5.84586646
    H      5.96616706      4.77265325      5.60935065
    H      6.71969525      6.05116275      5.22870632


