#B3LYP/TZVP OPT FREQ

Energy:     -6.61342461

0 1
    O      3.03912161      2.87772598      2.53132542
    H      2.47719703      2.96313247      1.75342209
    H      2.47516667      3.10368937      3.27904360
    O      5.20358798      3.17579125      5.46250516
    H      5.39577718      3.77994635      4.73707629
    H      4.33238307      2.81328171      5.26814485


