#B3LYP/TZVP OPT FREQ

Energy:      0.00000000

0 1
    O      2.74731364      7.71245057      6.04504289
    H      2.70541787      7.15158384      6.82725793
    H      2.99406599      7.12444936      5.32285527


