#B3LYP/TZVP OPT FREQ

Energy:    -41.66596711

0 1
    O      5.16190923      4.56660334     -1.74575094
    H      4.65047957      5.22935017     -2.22260884
    H      5.99637421      4.49733318     -2.22225586
    O      4.85703330      4.00719989      0.86883630
    H      4.99449008      4.25952785     -0.05074150
    H      4.39697012      3.16139996      0.83490313


