#B3LYP/TZVP OPT FREQ

Energy:   -567.15189006

0 1
    C      5.40139233      1.92297919      4.45594670
    S      5.96644640      3.59103790      4.15861716
    O      4.83205420      4.43419671      4.51449706
    O      7.11823945      3.75264636      5.03719103
    O      6.29961453      3.62102036      2.74002146
    H      6.20054445      1.23530569      4.20967296
    H      5.13475393      1.82647305      5.50084542
    H      4.53817681      1.73107522      3.83128438
    N      6.73476784      6.56263309      4.67715635
    H      6.98285867      6.63090453      3.68039051
    H      5.74060293      6.31095980      4.76687194
    H      7.31368924      5.83941549      5.12610905
    H      6.90192052      7.46925253      5.13525391
    O      7.19840329      6.10289844      2.04685160
    H      6.90592161      5.18906067      2.13369697
    H      7.44076449      6.20585350      1.12011086


