#B3LYP/TZVP OPT FREQ

Energy:   -498.52154404

0 1
    C      4.12163270      1.53448799      7.12110591
    S      3.28950652      2.89275268      7.92906250
    O      3.04132284      3.85864235      6.86610675
    O      2.07701412      2.30472467      8.48468988
    O      4.23373784      3.35733281      8.93748020
    H      4.34008771      0.77188002      7.85792081
    H      3.47189448      1.13550674      6.35242066
    H      5.03988317      1.90130015      6.68015683
    N      1.61068940      5.55959909      8.37659624
    H      1.07682651      6.36427828      8.01989747
    H      1.90802225      4.96833562      7.58808315
    H      2.44015526      5.89624701      8.88493349
    H      1.01775356      5.00953543      9.01347085
    O      0.41139091      7.46531982      6.30378345
    H      0.92709141      7.13340596      5.56076711
    H     -0.43816994      7.72282498      5.92945130


