#B3LYP/TZVP OPT FREQ

Energy:   -541.14263054

0 1
    C      6.67030147      4.52809663      9.92043953
    S      6.21398172      4.96066791      8.24868441
    O      6.25131223      3.70019822      7.51777024
    O      4.87864376      5.53296160      8.36695957
    O      7.22864491      5.91708161      7.82436709
    H      6.66443802      5.42527839     10.52642651
    H      5.95243031      3.81405676     10.30388559
    H      7.66110230      4.09179448      9.90924543
    N      4.99387009      5.50817810      5.42089755
    H      4.91423270      5.66232705      6.43561337
    H      4.08960909      5.70823927      4.97140920
    H      5.71488789      6.13309678      5.03442352
    H      5.25675068      4.52904930      5.24214412
    O      7.03543042      7.44836514      5.19408122
    H      7.21127638      8.38931728      5.08511161
    H      7.48208996      7.19856585      6.01034262


