#B3LYP/TZVP OPT FREQ

Energy:   -527.84244998

0 1
    C      2.00188521      3.86561138      3.25465621
    S      3.17828873      4.14078393      4.57012785
    O      4.05982957      2.98089682      4.52584960
    O      3.83626526      5.39363049      4.22072989
    O      2.36870966      4.21862123      5.77960575
    H      1.30781337      4.69613730      3.22856628
    H      2.53792272      3.79760549      2.31643352
    H      1.47151952      2.94201437      3.44921202
    N      4.25036709      6.07637237      6.89426253
    H      4.01693662      7.07900010      6.89446268
    H      5.01848156      5.90274650      7.55729076
    H      3.42375333      5.53153999      7.17643191
    H      4.54229687      5.79220289      5.94886478
    O      5.41739399      3.05327896      6.91591298
    H      4.91461876      2.43328279      7.45536541
    H      5.03701569      2.98947450      6.03306053


