#B3LYP/TZVP OPT FREQ

Energy:   -710.64272504

0 1
    S      5.84146327      2.88284488      6.26023312
    O      7.22662243      2.58882565      6.97586279
    O      4.90058777      1.90785251      6.68622091
    H      7.90438896      2.43457735      6.32796371
    O      6.12851228      3.05519348      4.87134759
    C      5.42550070      4.43324324      6.98921417
    H      5.36560708      4.30381965      8.06008366
    H      6.17825333      5.16031718      6.72284667
    H      4.46161248      4.71936806      6.59099119
    N      5.19076398      4.98322628      3.06115809
    H      5.60616926      4.13723670      3.47527436
    H      4.33976600      4.72829964      2.54099751
    H      4.94955417      5.64837682      3.80891795
    H      5.86756650      5.41899198      2.41944257
    O      4.66169398      6.46510318      4.93367191
    H      4.38717207      7.25635312      5.45722949


