#B3LYP/TZVP OPT FREQ

Energy:   -670.14045687

0 1
    S      4.85643282      8.70066823      2.80073091
    O      3.76625375      9.83315652      3.01571672
    O      5.23673202      8.19675147      4.07303703
    H      4.07117601     10.65565330      2.65040220
    O      5.83627653      9.24120711      1.91257091
    C      3.89314684      7.48062047      1.96902370
    H      3.06743382      7.20161691      2.60734510
    H      3.54477688      7.88693851      1.03106383
    H      4.54038024      6.63103037      1.79927378
    N      4.49252932      7.98424858      6.83846145
    H      3.48134329      8.13345840      6.96090105
    H      5.01116171      8.62872445      7.45117957
    H      4.72827849      7.01276596      7.08421755
    H      4.74933378      8.16204550      5.85754763
    O      2.09719773      8.36828892      7.22460736
    H      1.17876045      8.57479765      7.52356958


