#B3LYP/TZVP OPT FREQ

Energy:   -669.65971350

0 1
    S      3.28016141      8.12840362      4.29542970
    O      3.51069655      8.93587218      5.64156755
    O      4.52762908      7.59824760      3.87106965
    H      3.24589553      9.84164569      5.53026616
    O      2.52344725      8.98017188      3.43346759
    C      2.26930852      6.80816455      4.88136361
    H      2.81355525      6.27239770      5.64546345
    H      1.34749646      7.21624050      5.26861190
    H      2.07465167      6.16226343      4.03611222
    N      5.68819286      4.69963668      2.46644961
    H      6.47928399      4.05051896      2.35431925
    H      5.12925223      4.71196592      1.60205065
    H      5.09892832      4.39003915      3.25173228
    H      6.04530690      5.64602269      2.65769626
    O      3.81940856      4.33489612      4.01227158
    H      3.25872157      4.21906213      4.81710937


