#B3LYP/TZVP OPT FREQ

Energy:   -666.71752104

0 1
    S      2.36775520      2.28603363      6.33720552
    O      1.35880283      1.26366838      7.01101814
    O      1.63108235      3.14059362      5.47444091
    H      1.60655467      0.37092247      6.79993289
    O      3.45731474      1.51145302      5.83323225
    C      2.88252768      3.20776596      7.74915173
    H      2.01108111      3.65951441      8.20037607
    H      3.38281329      2.54433446      8.43893259
    H      3.56111411      3.97192597      7.39544369
    N      5.40051967      3.78524724      3.38303963
    H      4.63861951      4.10366476      2.76832781
    H      5.32646169      2.76799518      3.52255973
    H      6.30717731      4.00694099      2.94878623
    H      5.32982019      4.26238805      4.29248476
    O      5.01354992      4.95179957      5.51515972
    H      4.53449456      5.76270464      5.81263279


