#B3LYP/TZVP OPT FREQ

Energy:   -664.14359010

0 1
    S      9.75603584      2.76074830      2.19423867
    O     10.21703044      4.25121647      2.48273072
    O      9.16686239      2.23677960      3.37561663
    H     11.15271899      4.33830001      2.34188822
    O     10.86678228      2.10122732      1.58401035
    C      8.48869580      3.04124962      1.00119988
    H      7.73319059      3.67300440      1.44526852
    H      8.92402418      3.50388844      0.12788480
    H      8.07157828      2.07496379      0.75253522
    N      8.80895370      7.21468297      2.25132581
    H      8.22801536      6.76308497      1.53137992
    H      9.40122333      7.93365271      1.81308913
    H      8.20134699      7.65388490      2.95678167
    H      9.40522910      6.50810930      2.70405254
    O      7.42684356      5.85668555      0.66587727
    H      6.61315582      5.50969959      0.22648646


