#B3LYP/TZVP OPT FREQ

Energy:   -658.40290407

0 1
    S      8.76779652      7.57990267      7.65751756
    O      9.30775731      6.14905394      7.23519861
    O      9.34288116      8.54939620      6.79340970
    H      9.76190800      5.74164388      7.96368843
    O      8.93744433      7.67841481      9.07265683
    C      7.05805084      7.40767061      7.26346283
    H      6.96969382      7.18078153      6.21093561
    H      6.63441080      6.62221975      7.87159173
    H      6.58750843      8.35607754      7.48401574
    N      8.27421605      3.48723664      4.88989443
    H      7.56208502      4.12162219      5.27742066
    H      8.38758495      2.67642501      5.51398112
    H      7.97620202      3.16460948      3.95884580
    H      9.17099220      3.98628988      4.80933015
    O      6.52248655      4.79359757      6.00077495
    H      5.74617213      5.01524129      6.56977518


