#B3LYP/TZVP OPT FREQ

Energy:   -653.45704665

0 1
    S      9.78147553      5.52917586      6.48437095
    O     10.11975281      7.07813782      6.54373727
    O     10.96924515      4.79981513      6.75742532
    H      9.92125698      7.48946212      5.71046363
    O      9.06256190      5.31508617      5.26846265
    C      8.69365268      5.38438935      7.86417225
    H      9.22160175      5.70081833      8.75200200
    H      7.81976461      5.99404540      7.68849119
    H      8.42090295      4.34074868      7.94131624
    N      7.64518033      4.71009033      2.17792169
    H      6.66090167      4.97582524      2.32051438
    H      8.00910361      5.17980818      1.33728075
    H      8.19963032      4.99478545      2.99724220
    H      7.71108573      3.68994244      2.05664942
    O      5.31387210      5.41610630      2.17597380
    H      4.36392189      5.66812735      2.07783477


