#B3LYP/TZVP OPT FREQ

Energy:   -690.41530029

0 1
    S      8.52426953      6.97228143      4.14567352
    O      9.84204584      6.08927451      4.17735005
    O      8.85554418      8.28780670      4.56635488
    H      9.72778589      5.35031552      4.76370959
    O      7.51614240      6.22499236      4.82856658
    C      8.19307973      6.99386620      2.41419417
    H      9.04315904      7.42730766      1.90764421
    H      8.00883932      5.98402136      2.07879358
    H      7.31574440      7.60941325      2.26957742
    N      5.09999207      4.65343207      4.24600608
    H      5.47670054      5.39643858      4.85080709
    H      5.40716217      4.81161336      3.27627549
    H      5.44467324      3.73923639      4.57034134
    H      4.07143235      4.66643994      4.28660040
    O      5.79484261      4.95741459      1.98389253
    H      5.36555800      4.86739571      1.09892778


