#B3LYP/TZVP OPT FREQ

Energy:   -732.63129018

0 1
    O      4.06273732      5.91722107      4.38204968
    H      3.85476266      6.54816725      3.65115656
    O      4.47324225      4.33162744      6.05008756
    H      4.15948717      4.69626273      6.91371631
    H      4.22365300      4.91236030      5.28998331
    H      5.44201967      4.13401571      6.06192490


