#B3LYP/TZVP OPT FREQ

Energy:   -732.60201619

0 1
    O      7.97582993      4.15285096      6.13374307
    H      8.04293721      4.91910365      6.75334352
    O      7.91678177      2.39699364      4.59152406
    H      8.03535586      3.19016424      5.16951744
    H      8.14367263      1.55794495      5.06250365
    H      7.01369163      2.36322490      4.19026595


