#B3LYP/TZVP OPT FREQ

Energy:    -78.99085743

0 1
    S      7.16635213      4.88196221      6.61230775
    O      8.30934810      4.52418702      7.65288267
    O      5.94183877      4.34156016      7.08754991
    H      8.99197080      4.01702946      7.22891251
    O      7.66379680      4.52512640      5.32144711
    C      7.11779743      6.63644715      6.77843533
    H      6.88869957      6.87755527      7.80628757
    H      8.07305193      7.04423721      6.48276524
    H      6.33289082      6.99248214      6.12522009
    N      3.82321587      4.03581420      4.90129571
    H      4.35709883      3.98239088      5.76808216
    H      3.76211812      3.07918776      4.55439917
    H      2.87533152      4.29196709      5.17534906
    O      5.60252490      5.95638323      3.88223898
    H      4.86883655      5.36782910      4.09078766
    H      6.37942629      5.38852470      3.83589217


