#B3LYP/TZVP OPT FREQ

Energy:    -78.32776480

0 1
    S      5.94316677      6.78168960      4.85043363
    O      5.40083778      8.17770259      5.37413776
    O      7.21956832      6.55066152      5.42900735
    H      5.24026007      8.76258474      4.64265919
    O      5.78087532      6.78766629      3.43102180
    C      4.77589978      5.68579247      5.58845164
    H      4.81386804      5.81522199      6.66032178
    H      3.79245146      5.90643265      5.20067336
    H      5.07458939      4.68151714      5.32059901
    N      7.47947852      4.75945580      1.95445736
    H      6.87002821      5.52554574      2.23885202
    H      7.00123941      4.29749098      1.18174775
    H      8.30419533      5.19854631      1.54672461
    O      7.31280513      3.74237327      4.56487607
    H      7.83457295      4.42195708      5.00545671
    H      7.41851671      3.91113724      3.62225691


