#B3LYP/TZVP OPT FREQ

Energy:    -78.18319824

0 1
    S      5.11672219      5.49439342      3.58744863
    O      3.98716465      5.18273111      2.51777326
    O      6.38234339      5.29479154      2.97451755
    H      3.42452198      4.48314718      2.82913926
    O      4.76433548      4.77901768      4.77284533
    C      4.86528645      7.22293080      3.82642956
    H      4.98856817      7.72216725      2.87634337
    H      3.87566838      7.38207071      4.22836893
    H      5.61904791      7.55642760      4.52653884
    N      2.48169249      3.05803300      3.76948955
    H      3.13213275      3.29327919      4.51834901
    H      2.67351877      2.08551659      3.53154253
    H      1.55574931      3.06123560      4.19589694
    O      7.97804070      7.59686861      2.96211131
    H      8.88664653      7.56615172      2.64323982
    H      7.63689944      6.70339293      2.84587466


