#B3LYP/TZVP OPT FREQ

Energy:    -77.72574422

0 1
    S      7.47877393      2.94607224      5.34360951
    O      7.54211708      4.36785083      4.64234471
    O      7.32923540      1.95551833      4.33675122
    H      6.83846061      4.92190960      4.95986585
    O      6.52415248      3.05504662      6.40093001
    C      9.10850443      2.84219714      6.00796013
    H      9.81588927      2.91706370      5.19487904
    H      9.24763545      3.63825904      6.72430690
    H      9.19072915      1.87746563      6.48968794
    N      5.31134972      5.81703759      5.74633461
    H      5.28893705      6.60371310      6.39428763
    H      5.18314666      4.98325178      6.31867145
    H      4.46589777      5.89853640      5.18262082
    O      7.54640892      1.91891100      8.73277089
    H      6.98934826      2.33777968      8.06762462
    H      6.93572428      1.51129206      9.35654823


