#B3LYP/TZVP OPT FREQ

Energy:    -75.40694884

0 1
    S      5.66018587      7.89461200      2.18857737
    O      5.76179963      9.19307419      1.28253674
    O      4.91589650      6.91219255      1.48273900
    H      5.37859868      9.93749101      1.73190724
    O      5.23989074      8.33184334      3.48213252
    C      7.35242781      7.40246264      2.23632199
    H      7.68705572      7.22580946      1.22443415
    H      7.93158659      8.18028258      2.71150188
    H      7.39777805      6.48805335      2.81193337
    N      4.91221552      4.16983214      0.32083164
    H      4.78384485      5.11575061      0.67855085
    H      4.22316075      3.59504324      0.80459348
    H      4.61324831      4.19931958     -0.65331075
    O      7.56451358      4.43297327      1.16984674
    H      6.64980477      4.35457560      0.87770172
    H      7.97454533      3.58860923      0.95279736


