#B3LYP/TZVP OPT FREQ

Energy:      0.00000000

0 1
    O      7.07809823      4.22972198      7.18876131
    H      6.75065347      4.26186184      6.28325920
    H      7.46557380      3.35331974      7.28860569


