#B3LYP/TZVP OPT FREQ

Energy:    -41.66596299

0 1
    O      4.65925081      5.04589768      5.99174238
    H      3.75099500      4.72467498      5.98311317
    H      4.90818760      5.13105009      5.06493784
    O      5.19749788      5.22806586      3.36133289
    H      5.24916339      6.05735855      2.87369427
    H      5.75998658      4.61294835      2.87819315


