#B3LYP/TZVP OPT FREQ

Energy:   -613.87823278

0 1
    C     11.60766252      9.82720934      4.01977020
    S      9.90248765      9.35687575      3.77223070
    O      9.96840203      8.11843104      3.00651345
    O      9.36689170      9.18915530      5.11746056
    O      9.31444866     10.47109259      3.03939736
    H     11.63600960     10.74910255      4.58677907
    H     12.11111559      9.03846270      4.56441372
    H     12.07368888      9.96927501      3.05291553
    N      6.45652885      9.64717697      2.64505635
    H      5.80099368     10.30512504      3.06527270
    H      6.20025889      9.59212637      1.65991705
    H      7.36537210     10.10828376      2.66932070
    O      7.49168267      7.54541891      4.00598523
    H      6.90833948      8.17792826      3.51926313
    H      8.22651950      7.20678651      3.43796511
    H      7.82620141      7.92823530      4.85408253


