#B3LYP/TZVP OPT FREQ

Energy:   -594.33585936

0 1
    C      6.92596418      8.19862866      4.05918080
    S      6.37644288      6.97752719      2.87721280
    O      4.92329154      7.09050263      2.87801761
    O      6.99690236      7.37563902      1.61976555
    O      6.86823161      5.70919200      3.40045596
    H      8.00698024      8.17051251      4.11212851
    H      6.59367190      9.17542571      3.73104642
    H      6.49876205      7.96448175      5.02605450
    N      3.36532998      3.70914420      5.45735090
    H      2.78501347      2.87144569      5.43093591
    H      2.76780085      4.44833796      5.82580143
    H      4.06758404      3.53687106      6.17593666
    O      4.51872358      4.44987420      3.11130737
    H      4.07231030      4.13112735      3.93372537
    H      4.19802485      5.34428453      2.83838535
    H      5.50395148      4.41814045      3.18901943


