#B3LYP/TZVP OPT FREQ

Energy:   -613.87235606

0 1
    C      7.97605672      7.77538237      4.50735818
    S      6.40138375      6.93253803      4.49598724
    O      5.78778224      7.31337463      3.22994237
    O      6.73958029      5.51742553      4.58382942
    O      5.70011774      7.44376961      5.66696203
    H      8.49222888      7.53691860      5.42871101
    H      8.55657103      7.44064907      3.65695853
    H      7.80079445      8.84183324      4.44303981
    N      3.06541993      6.00950040      5.61316273
    H      3.87860217      6.59066343      5.81363213
    H      2.90760838      5.45478368      6.45375131
    H      2.27521297      6.65064000      5.55219340
    O      4.31739645      5.02095401      3.42311112
    H      5.14474040      4.60217110      3.76571674
    H      3.68038009      5.23137430      4.14922226
    H      4.50841975      5.80997929      2.85860300


