#B3LYP/TZVP OPT FREQ

Energy:   -613.86353913

0 1
    C      6.24460232      9.30717694      4.82131577
    S      5.94098287      7.54711623      4.83191509
    O      5.70808602      7.22095335      6.23326792
    O      4.76886693      7.36968824      3.98379948
    O      7.15735857      6.95897153      4.28526193
    H      6.42838354      9.62289842      3.80213270
    H      5.37340957      9.81342796      5.21749238
    H      7.10971648      9.51513151      5.43816548
    N      5.20350720      4.26355033      6.21184922
    H      5.34393488      5.24788891      6.43670788
    H      5.87470900      3.75073569      6.78256244
    H      4.28463086      4.02334555      6.58221691
    O      5.62693601      4.80663807      3.59139606
    H      5.44369011      4.37920250      4.46373517
    H      4.93277762      5.46763318      3.34945902
    H      6.53587242      5.19402253      3.55282022


