#B3LYP/TZVP OPT FREQ

Energy:   -613.86234886

0 1
    C      6.48930743      2.83247422      7.28323025
    S      5.80002511      3.85190200      5.98871578
    O      6.95461488      4.31570345      5.22962184
    O      4.92496437      2.95748775      5.24110064
    O      5.09294803      4.91464684      6.69222777
    H      5.68079047      2.45038805      7.89355820
    H      7.03344692      2.01377328      6.82950807
    H      7.15707192      3.43676322      7.88414336
    N      3.95073890      6.60158991      4.48998240
    H      2.93387664      6.65973142      4.53257942
    H      4.28474221      7.56411128      4.52460440
    H      4.24078488      6.17610963      5.36978018
    O      5.24699128      4.65300996      3.12492845
    H      6.19019159      4.72041764      3.41317338
    H      4.82800567      3.80844764      3.42236666
    H      4.71936620      5.44359641      3.39751797


